WARNING: for repeatability, setting FPU to use double precision
============================[ Problem Statistics ]=============================
|                                                                             |
|  Number of variables:            50                                         |
|  Number of clauses:             218                                         |
|  Parse time:                   0.00 s                                       |
|                                                                             |
============================[ Search Statistics ]==============================
| Conflicts |          ORIGINAL         |          LEARNT          | Progress |
|           |    Vars  Clauses Literals |    Limit  Clauses Lit/Cl |          |
===============================================================================
===============================================================================
restarts              : 1
conflicts             : 66             (43421 /sec)
decisions             : 79             (0.00 % random) (51974 /sec)
propagations          : 1015           (667763 /sec)
conflict literals     : 254            (18.06 % deleted)
Memory used           : 20.00 MB
CPU time              : 0.00152 s

UNSATISFIABLE
